p cnf 299 916
c weights 1.0 1.0 2.718281828459045 0.36787944117144233 2.718281828459045 0.36787944117144233 2.718281828459045 0.36787944117144233 2.718281828459045 0.36787944117144233 2.718281828459045 0.36787944117144233 1.0 1.0 2.718281828459045 0.36787944117144233 2.718281828459045 0.36787944117144233 2.718281828459045 0.36787944117144233 2.718281828459045 0.36787944117144233 2.718281828459045 0.36787944117144233 2.718281828459045 0.36787944117144233 2.718281828459045 0.36787944117144233 2.718281828459045 0.36787944117144233 1.0 1.0 2.718281828459045 0.36787944117144233 2.718281828459045 0.36787944117144233 2.718281828459045 0.36787944117144233 2.718281828459045 0.36787944117144233 2.718281828459045 0.36787944117144233 2.718281828459045 0.36787944117144233 2.718281828459045 0.36787944117144233 2.718281828459045 0.36787944117144233 2.718281828459045 0.36787944117144233 2.718281828459045 0.36787944117144233 1.0 1.0 2.718281828459045 0.36787944117144233 2.718281828459045 0.36787944117144233 2.718281828459045 0.36787944117144233 2.718281828459045 0.36787944117144233 2.718281828459045 0.36787944117144233 2.718281828459045 0.36787944117144233 2.718281828459045 0.36787944117144233 2.718281828459045 0.36787944117144233 2.718281828459045 0.36787944117144233 1.0 1.0 2.718281828459045 0.36787944117144233 2.718281828459045 0.36787944117144233 2.718281828459045 0.36787944117144233 2.718281828459045 0.36787944117144233 2.718281828459045 0.36787944117144233 2.718281828459045 0.36787944117144233 2.718281828459045 0.36787944117144233 2.718281828459045 0.36787944117144233 1.0 1.0 2.718281828459045 0.36787944117144233 2.718281828459045 0.36787944117144233 2.718281828459045 0.36787944117144233 2.718281828459045 0.36787944117144233 2.718281828459045 0.36787944117144233 2.718281828459045 0.36787944117144233 1.0 1.0 2.718281828459045 0.36787944117144233 2.718281828459045 0.36787944117144233 2.718281828459045 0.36787944117144233 2.718281828459045 0.36787944117144233 2.718281828459045 0.36787944117144233 2.718281828459045 0.36787944117144233 2.718281828459045 0.36787944117144233 1.0 1.0 2.718281828459045 0.36787944117144233 2.718281828459045 0.36787944117144233 2.718281828459045 0.36787944117144233 2.718281828459045 0.36787944117144233 1.0 1.0 2.718281828459045 0.36787944117144233 2.718281828459045 0.36787944117144233 2.718281828459045 0.36787944117144233 2.718281828459045 0.36787944117144233 2.718281828459045 0.36787944117144233 2.718281828459045 0.36787944117144233 2.718281828459045 0.36787944117144233 2.718281828459045 0.36787944117144233 2.718281828459045 0.36787944117144233 2.718281828459045 0.36787944117144233 1.0 1.0 2.718281828459045 0.36787944117144233 2.718281828459045 0.36787944117144233 2.718281828459045 0.36787944117144233 2.718281828459045 0.36787944117144233 1.0 1.0 2.718281828459045 0.36787944117144233 2.718281828459045 0.36787944117144233 2.718281828459045 0.36787944117144233 2.718281828459045 0.36787944117144233 2.718281828459045 0.36787944117144233 2.718281828459045 0.36787944117144233 1.0 1.0 2.718281828459045 0.36787944117144233 2.718281828459045 0.36787944117144233 2.718281828459045 0.36787944117144233 2.718281828459045 0.36787944117144233 2.718281828459045 0.36787944117144233 2.718281828459045 0.36787944117144233 2.718281828459045 0.36787944117144233 1.0 1.0 2.718281828459045 0.36787944117144233 2.718281828459045 0.36787944117144233 2.718281828459045 0.36787944117144233 2.718281828459045 0.36787944117144233 2.718281828459045 0.36787944117144233 1.0 1.0 2.718281828459045 0.36787944117144233 2.718281828459045 0.36787944117144233 1.0 1.0 2.718281828459045 0.36787944117144233 2.718281828459045 0.36787944117144233 2.718281828459045 0.36787944117144233 2.718281828459045 0.36787944117144233 2.718281828459045 0.36787944117144233 2.718281828459045 0.36787944117144233 1.0 1.0 2.718281828459045 0.36787944117144233 2.718281828459045 0.36787944117144233 2.718281828459045 0.36787944117144233 2.718281828459045 0.36787944117144233 2.718281828459045 0.36787944117144233 2.718281828459045 0.36787944117144233 1.0 1.0 2.718281828459045 0.36787944117144233 2.718281828459045 0.36787944117144233 2.718281828459045 0.36787944117144233 2.718281828459045 0.36787944117144233 2.718281828459045 0.36787944117144233 2.718281828459045 0.36787944117144233 2.718281828459045 0.36787944117144233 1.0 1.0 2.718281828459045 0.36787944117144233 2.718281828459045 0.36787944117144233 2.718281828459045 0.36787944117144233 2.718281828459045 0.36787944117144233 2.718281828459045 0.36787944117144233 2.718281828459045 0.36787944117144233 2.718281828459045 0.36787944117144233 2.718281828459045 0.36787944117144233 2.718281828459045 0.36787944117144233 1.0 1.0 2.718281828459045 0.36787944117144233 2.718281828459045 0.36787944117144233 2.718281828459045 0.36787944117144233 1.0 1.0 2.718281828459045 0.36787944117144233 2.718281828459045 0.36787944117144233 2.718281828459045 0.36787944117144233 1.0 1.0 2.718281828459045 0.36787944117144233 2.718281828459045 0.36787944117144233 2.718281828459045 0.36787944117144233 2.718281828459045 0.36787944117144233 2.718281828459045 0.36787944117144233 1.0 1.0 2.718281828459045 0.36787944117144233 2.718281828459045 0.36787944117144233 1.0 1.0 2.718281828459045 0.36787944117144233 2.718281828459045 0.36787944117144233 2.718281828459045 0.36787944117144233 2.718281828459045 0.36787944117144233 2.718281828459045 0.36787944117144233 1.0 1.0 2.718281828459045 0.36787944117144233 1.0 1.0 2.718281828459045 0.36787944117144233 2.718281828459045 0.36787944117144233 2.718281828459045 0.36787944117144233 2.718281828459045 0.36787944117144233 1.0 1.0 2.718281828459045 0.36787944117144233 1.0 1.0 2.718281828459045 0.36787944117144233 2.718281828459045 0.36787944117144233 2.718281828459045 0.36787944117144233 2.718281828459045 0.36787944117144233 2.718281828459045 0.36787944117144233 2.718281828459045 0.36787944117144233 1.0 1.0 2.718281828459045 0.36787944117144233 1.0 1.0 2.718281828459045 0.36787944117144233 2.718281828459045 0.36787944117144233 2.718281828459045 0.36787944117144233 2.718281828459045 0.36787944117144233 1.0 1.0 2.718281828459045 0.36787944117144233 2.718281828459045 0.36787944117144233 1.0 1.0 2.718281828459045 0.36787944117144233 1.0 1.0 2.718281828459045 0.36787944117144233 2.718281828459045 0.36787944117144233 2.718281828459045 0.36787944117144233 2.718281828459045 0.36787944117144233 2.718281828459045 0.36787944117144233 1.0 1.0 2.718281828459045 0.36787944117144233 2.718281828459045 0.36787944117144233 2.718281828459045 0.36787944117144233 2.718281828459045 0.36787944117144233 2.718281828459045 0.36787944117144233 2.718281828459045 0.36787944117144233 1.0 1.0 2.718281828459045 0.36787944117144233 2.718281828459045 0.36787944117144233 2.718281828459045 0.36787944117144233 1.0 1.0 2.718281828459045 0.36787944117144233 2.718281828459045 0.36787944117144233 2.718281828459045 0.36787944117144233 1.0 1.0 2.718281828459045 0.36787944117144233 1.0 1.0 2.718281828459045 0.36787944117144233 2.718281828459045 0.36787944117144233 1.0 1.0 2.718281828459045 0.36787944117144233 2.718281828459045 0.36787944117144233 2.718281828459045 0.36787944117144233 2.718281828459045 0.36787944117144233 2.718281828459045 0.36787944117144233 2.718281828459045 0.36787944117144233 1.0 1.0 2.718281828459045 0.36787944117144233 2.718281828459045 0.36787944117144233 1.0 1.0 2.718281828459045 0.36787944117144233 2.718281828459045 0.36787944117144233 2.718281828459045 0.36787944117144233 2.718281828459045 0.36787944117144233 2.718281828459045 0.36787944117144233 1.0 1.0 2.718281828459045 0.36787944117144233 1.0 1.0 1.0 1.0 2.718281828459045 0.36787944117144233 2.718281828459045 0.36787944117144233 2.718281828459045 0.36787944117144233 2.718281828459045 0.36787944117144233 1.0 1.0 2.718281828459045 0.36787944117144233 2.718281828459045 0.36787944117144233 2.718281828459045 0.36787944117144233 1.0 1.0 2.718281828459045 0.36787944117144233 2.718281828459045 0.36787944117144233 1.0 1.0 2.718281828459045 0.36787944117144233 2.718281828459045 0.36787944117144233 2.718281828459045 0.36787944117144233 1.0 1.0 2.718281828459045 0.36787944117144233 2.718281828459045 0.36787944117144233 1.0 1.0 2.718281828459045 0.36787944117144233 2.718281828459045 0.36787944117144233 2.718281828459045 0.36787944117144233 2.718281828459045 0.36787944117144233 1.0 1.0 2.718281828459045 0.36787944117144233 2.718281828459045 0.36787944117144233 1.0 1.0 2.718281828459045 0.36787944117144233 2.718281828459045 0.36787944117144233 1.0 1.0 1.0 1.0 2.718281828459045 0.36787944117144233 2.718281828459045 0.36787944117144233 1.0 1.0 2.718281828459045 0.36787944117144233 2.718281828459045 0.36787944117144233 2.718281828459045 0.36787944117144233 2.718281828459045 0.36787944117144233 1.0 1.0 1.0 1.0 1.0 1.0 1.0 1.0 2.718281828459045 0.36787944117144233 2.718281828459045 0.36787944117144233 1.0 1.0 2.718281828459045 0.36787944117144233 1.0 1.0 2.718281828459045 0.36787944117144233 1.0 1.0 2.718281828459045 0.36787944117144233 1.0 1.0 2.718281828459045 0.36787944117144233 1.0 1.0 2.718281828459045 0.36787944117144233 1.0 1.0 2.718281828459045 0.36787944117144233 1.0 1.0 1.0 1.0 2.718281828459045 0.36787944117144233 1.0 1.0 2.718281828459045 0.36787944117144233 1.0 1.0 1.0 1.0 1.0 1.0 1.0 1.0
2 1 82 0
2 -1 -82 0
-2 1 -82 0
-2 -1 82 0
3 1 142 0
3 -1 -142 0
-3 1 -142 0
-3 -1 142 0
4 1 146 0
4 -1 -146 0
-4 1 -146 0
-4 -1 146 0
5 1 195 0
5 -1 -195 0
-5 1 -195 0
-5 -1 195 0
6 1 291 0
6 -1 -291 0
-6 1 -291 0
-6 -1 291 0
8 7 146 0
8 -7 -146 0
-8 7 -146 0
-8 -7 146 0
9 7 222 0
9 -7 -222 0
-9 7 -222 0
-9 -7 222 0
10 7 225 0
10 -7 -225 0
-10 7 -225 0
-10 -7 225 0
11 7 239 0
11 -7 -239 0
-11 7 -239 0
-11 -7 239 0
12 7 246 0
12 -7 -246 0
-12 7 -246 0
-12 -7 246 0
13 7 268 0
13 -7 -268 0
-13 7 -268 0
-13 -7 268 0
14 7 275 0
14 -7 -275 0
-14 7 -275 0
-14 -7 275 0
15 7 281 0
15 -7 -281 0
-15 7 -281 0
-15 -7 281 0
17 16 27 0
17 -16 -27 0
-17 16 -27 0
-17 -16 27 0
18 16 37 0
18 -16 -37 0
-18 16 -37 0
-18 -16 37 0
19 16 82 0
19 -16 -82 0
-19 16 -82 0
-19 -16 82 0
20 16 89 0
20 -16 -89 0
-20 16 -89 0
-20 -16 89 0
21 16 161 0
21 -16 -161 0
-21 16 -161 0
-21 -16 161 0
22 16 163 0
22 -16 -163 0
-22 16 -163 0
-22 -16 163 0
23 16 179 0
23 -16 -179 0
-23 16 -179 0
-23 -16 179 0
24 16 250 0
24 -16 -250 0
-24 16 -250 0
-24 -16 250 0
25 16 273 0
25 -16 -273 0
-25 16 -273 0
-25 -16 273 0
26 16 281 0
26 -16 -281 0
-26 16 -281 0
-26 -16 281 0
28 27 66 0
28 -27 -66 0
-28 27 -66 0
-28 -27 66 0
29 27 77 0
29 -27 -77 0
-29 27 -77 0
-29 -27 77 0
30 27 142 0
30 -27 -142 0
-30 27 -142 0
-30 -27 142 0
31 27 195 0
31 -27 -195 0
-31 27 -195 0
-31 -27 195 0
32 27 202 0
32 -27 -202 0
-32 27 -202 0
-32 -27 202 0
33 27 243 0
33 -27 -243 0
-33 27 -243 0
-33 -27 243 0
34 27 289 0
34 -27 -289 0
-34 27 -289 0
-34 -27 289 0
35 27 291 0
35 -27 -291 0
-35 27 -291 0
-35 -27 291 0
36 27 297 0
36 -27 -297 0
-36 27 -297 0
-36 -27 297 0
38 37 46 0
38 -37 -46 0
-38 37 -46 0
-38 -37 46 0
39 37 146 0
39 -37 -146 0
-39 37 -146 0
-39 -37 146 0
40 37 155 0
40 -37 -155 0
-40 37 -155 0
-40 -37 155 0
41 37 195 0
41 -37 -195 0
-41 37 -195 0
-41 -37 195 0
42 37 202 0
42 -37 -202 0
-42 37 -202 0
-42 -37 202 0
43 37 233 0
43 -37 -233 0
-43 37 -233 0
-43 -37 233 0
44 37 283 0
44 -37 -283 0
-44 37 -283 0
-44 -37 283 0
45 37 292 0
45 -37 -292 0
-45 37 -292 0
-45 -37 292 0
47 46 146 0
47 -46 -146 0
-47 46 -146 0
-47 -46 146 0
48 46 177 0
48 -46 -177 0
-48 46 -177 0
-48 -46 177 0
49 46 231 0
49 -46 -231 0
-49 46 -231 0
-49 -46 231 0
50 46 253 0
50 -46 -253 0
-50 46 -253 0
-50 -46 253 0
51 46 258 0
51 -46 -258 0
-51 46 -258 0
-51 -46 258 0
52 46 281 0
52 -46 -281 0
-52 46 -281 0
-52 -46 281 0
54 53 120 0
54 -53 -120 0
-54 53 -120 0
-54 -53 120 0
55 53 177 0
55 -53 -177 0
-55 53 -177 0
-55 -53 177 0
56 53 206 0
56 -53 -206 0
-56 53 -206 0
-56 -53 206 0
57 53 234 0
57 -53 -234 0
-57 53 -234 0
-57 -53 234 0
58 53 264 0
58 -53 -264 0
-58 53 -264 0
-58 -53 264 0
59 53 287 0
59 -53 -287 0
-59 53 -287 0
-59 -53 287 0
60 53 292 0
60 -53 -292 0
-60 53 -292 0
-60 -53 292 0
62 61 120 0
62 -61 -120 0
-62 61 -120 0
-62 -61 120 0
63 61 161 0
63 -61 -161 0
-63 61 -161 0
-63 -61 161 0
64 61 184 0
64 -61 -184 0
-64 61 -184 0
-64 -61 184 0
65 61 264 0
65 -61 -264 0
-65 61 -264 0
-65 -61 264 0
67 66 89 0
67 -66 -89 0
-67 66 -89 0
-67 -66 89 0
68 66 97 0
68 -66 -97 0
-68 66 -97 0
-68 -66 97 0
69 66 161 0
69 -66 -161 0
-69 66 -161 0
-69 -66 161 0
70 66 170 0
70 -66 -170 0
-70 66 -170 0
-70 -66 170 0
71 66 189 0
71 -66 -189 0
-71 66 -189 0
-71 -66 189 0
72 66 212 0
72 -66 -212 0
-72 66 -212 0
-72 -66 212 0
73 66 250 0
73 -66 -250 0
-73 66 -250 0
-73 -66 250 0
74 66 264 0
74 -66 -264 0
-74 66 -264 0
-74 -66 264 0
75 66 274 0
75 -66 -274 0
-75 66 -274 0
-75 -66 274 0
76 66 291 0
76 -66 -291 0
-76 66 -291 0
-76 -66 291 0
78 77 128 0
78 -77 -128 0
-78 77 -128 0
-78 -77 128 0
79 77 189 0
79 -77 -189 0
-79 77 -189 0
-79 -77 189 0
80 77 222 0
80 -77 -222 0
-80 77 -222 0
-80 -77 222 0
81 77 299 0
81 -77 -299 0
-81 77 -299 0
-81 -77 299 0
83 82 120 0
83 -82 -120 0
-83 82 -120 0
-83 -82 120 0
84 82 161 0
84 -82 -161 0
-84 82 -161 0
-84 -82 161 0
85 82 225 0
85 -82 -225 0
-85 82 -225 0
-85 -82 225 0
86 82 274 0
86 -82 -274 0
-86 82 -274 0
-86 -82 274 0
87 82 291 0
87 -82 -291 0
-87 82 -291 0
-87 -82 291 0
88 82 299 0
88 -82 -299 0
-88 82 -299 0
-88 -82 299 0
90 89 155 0
90 -89 -155 0
-90 89 -155 0
-90 -89 155 0
91 89 179 0
91 -89 -179 0
-91 89 -179 0
-91 -89 179 0
92 89 233 0
92 -89 -233 0
-92 89 -233 0
-92 -89 233 0
93 89 264 0
93 -89 -264 0
-93 89 -264 0
-93 -89 264 0
94 89 274 0
94 -89 -274 0
-94 89 -274 0
-94 -89 274 0
95 89 283 0
95 -89 -283 0
-95 89 -283 0
-95 -89 283 0
96 89 285 0
96 -89 -285 0
-96 89 -285 0
-96 -89 285 0
98 97 161 0
98 -97 -161 0
-98 97 -161 0
-98 -97 161 0
99 97 250 0
99 -97 -250 0
-99 97 -250 0
-99 -97 250 0
100 97 253 0
100 -97 -253 0
-100 97 -253 0
-100 -97 253 0
101 97 274 0
101 -97 -274 0
-101 97 -274 0
-101 -97 274 0
102 97 287 0
102 -97 -287 0
-102 97 -287 0
-102 -97 287 0
104 103 177 0
104 -103 -177 0
-104 103 -177 0
-104 -103 177 0
105 103 212 0
105 -103 -212 0
-105 103 -212 0
-105 -103 212 0
107 106 138 0
107 -106 -138 0
-107 106 -138 0
-107 -106 138 0
108 106 146 0
108 -106 -146 0
-108 106 -146 0
-108 -106 146 0
109 106 177 0
109 -106 -177 0
-109 106 -177 0
-109 -106 177 0
110 106 195 0
110 -106 -195 0
-110 106 -195 0
-110 -106 195 0
111 106 225 0
111 -106 -225 0
-111 106 -225 0
-111 -106 225 0
112 106 268 0
112 -106 -268 0
-112 106 -268 0
-112 -106 268 0
114 113 195 0
114 -113 -195 0
-114 113 -195 0
-114 -113 195 0
115 113 210 0
115 -113 -210 0
-115 113 -210 0
-115 -113 210 0
116 113 253 0
116 -113 -253 0
-116 113 -253 0
-116 -113 253 0
117 113 258 0
117 -113 -258 0
-117 113 -258 0
-117 -113 258 0
118 113 274 0
118 -113 -274 0
-118 113 -274 0
-118 -113 274 0
119 113 281 0
119 -113 -281 0
-119 113 -281 0
-119 -113 281 0
121 120 128 0
121 -120 -128 0
-121 120 -128 0
-121 -120 128 0
122 120 155 0
122 -120 -155 0
-122 120 -155 0
-122 -120 155 0
123 120 215 0
123 -120 -215 0
-123 120 -215 0
-123 -120 215 0
124 120 253 0
124 -120 -253 0
-124 120 -253 0
-124 -120 253 0
125 120 265 0
125 -120 -265 0
-125 120 -265 0
-125 -120 265 0
126 120 285 0
126 -120 -285 0
-126 120 -285 0
-126 -120 285 0
127 120 292 0
127 -120 -292 0
-127 120 -292 0
-127 -120 292 0
129 128 170 0
129 -128 -170 0
-129 128 -170 0
-129 -128 170 0
130 128 225 0
130 -128 -225 0
-130 128 -225 0
-130 -128 225 0
131 128 234 0
131 -128 -234 0
-131 128 -234 0
-131 -128 234 0
132 128 253 0
132 -128 -253 0
-132 128 -253 0
-132 -128 253 0
133 128 268 0
133 -128 -268 0
-133 128 -268 0
-133 -128 268 0
134 128 273 0
134 -128 -273 0
-134 128 -273 0
-134 -128 273 0
135 128 274 0
135 -128 -274 0
-135 128 -274 0
-135 -128 274 0
136 128 275 0
136 -128 -275 0
-136 128 -275 0
-136 -128 275 0
137 128 281 0
137 -128 -281 0
-137 128 -281 0
-137 -128 281 0
139 138 212 0
139 -138 -212 0
-139 138 -212 0
-139 -138 212 0
140 138 246 0
140 -138 -246 0
-140 138 -246 0
-140 -138 246 0
141 138 258 0
141 -138 -258 0
-141 138 -258 0
-141 -138 258 0
143 142 189 0
143 -142 -189 0
-143 142 -189 0
-143 -142 189 0
144 142 253 0
144 -142 -253 0
-144 142 -253 0
-144 -142 253 0
145 142 294 0
145 -142 -294 0
-145 142 -294 0
-145 -142 294 0
147 146 184 0
147 -146 -184 0
-147 146 -184 0
-147 -146 184 0
148 146 239 0
148 -146 -239 0
-148 146 -239 0
-148 -146 239 0
149 146 246 0
149 -146 -246 0
-149 146 -246 0
-149 -146 246 0
150 146 250 0
150 -146 -250 0
-150 146 -250 0
-150 -146 250 0
151 146 264 0
151 -146 -264 0
-151 146 -264 0
-151 -146 264 0
153 152 170 0
153 -152 -170 0
-153 152 -170 0
-153 -152 170 0
154 152 215 0
154 -152 -215 0
-154 152 -215 0
-154 -152 215 0
156 155 189 0
156 -155 -189 0
-156 155 -189 0
-156 -155 189 0
157 155 195 0
157 -155 -195 0
-157 155 -195 0
-157 -155 195 0
158 155 210 0
158 -155 -210 0
-158 155 -210 0
-158 -155 210 0
159 155 275 0
159 -155 -275 0
-159 155 -275 0
-159 -155 275 0
160 155 285 0
160 -155 -285 0
-160 155 -285 0
-160 -155 285 0
162 161 246 0
162 -161 -246 0
-162 161 -246 0
-162 -161 246 0
164 163 202 0
164 -163 -202 0
-164 163 -202 0
-164 -163 202 0
165 163 225 0
165 -163 -225 0
-165 163 -225 0
-165 -163 225 0
166 163 258 0
166 -163 -258 0
-166 163 -258 0
-166 -163 258 0
167 163 276 0
167 -163 -276 0
-167 163 -276 0
-167 -163 276 0
169 168 289 0
169 -168 -289 0
-169 168 -289 0
-169 -168 289 0
171 170 177 0
171 -170 -177 0
-171 170 -177 0
-171 -170 177 0
172 170 195 0
172 -170 -195 0
-172 170 -195 0
-172 -170 195 0
173 170 212 0
173 -170 -212 0
-173 170 -212 0
-173 -170 212 0
174 170 231 0
174 -170 -231 0
-174 170 -231 0
-174 -170 231 0
175 170 274 0
175 -170 -274 0
-175 170 -274 0
-175 -170 274 0
176 170 298 0
176 -170 -298 0
-176 170 -298 0
-176 -170 298 0
178 177 281 0
178 -177 -281 0
-178 177 -281 0
-178 -177 281 0
180 179 189 0
180 -179 -189 0
-180 179 -189 0
-180 -179 189 0
181 179 276 0
181 -179 -276 0
-181 179 -276 0
-181 -179 276 0
182 179 287 0
182 -179 -287 0
-182 179 -287 0
-182 -179 287 0
183 179 298 0
183 -179 -298 0
-183 179 -298 0
-183 -179 298 0
185 184 231 0
185 -184 -231 0
-185 184 -231 0
-185 -184 231 0
186 184 233 0
186 -184 -233 0
-186 184 -233 0
-186 -184 233 0
188 187 210 0
188 -187 -210 0
-188 187 -210 0
-188 -187 210 0
190 189 195 0
190 -189 -195 0
-190 189 -195 0
-190 -189 195 0
191 189 212 0
191 -189 -212 0
-191 189 -212 0
-191 -189 212 0
192 189 246 0
192 -189 -246 0
-192 189 -246 0
-192 -189 246 0
193 189 253 0
193 -189 -253 0
-193 189 -253 0
-193 -189 253 0
194 189 264 0
194 -189 -264 0
-194 189 -264 0
-194 -189 264 0
196 195 206 0
196 -195 -206 0
-196 195 -206 0
-196 -195 206 0
197 195 210 0
197 -195 -210 0
-197 195 -210 0
-197 -195 210 0
198 195 279 0
198 -195 -279 0
-198 195 -279 0
-198 -195 279 0
199 195 281 0
199 -195 -281 0
-199 195 -281 0
-199 -195 281 0
200 195 291 0
200 -195 -291 0
-200 195 -291 0
-200 -195 291 0
201 195 299 0
201 -195 -299 0
-201 195 -299 0
-201 -195 299 0
203 202 287 0
203 -202 -287 0
-203 202 -287 0
-203 -202 287 0
204 202 291 0
204 -202 -291 0
-204 202 -291 0
-204 -202 291 0
205 202 297 0
205 -202 -297 0
-205 202 -297 0
-205 -202 297 0
207 206 222 0
207 -206 -222 0
-207 206 -222 0
-207 -206 222 0
208 206 268 0
208 -206 -268 0
-208 206 -268 0
-208 -206 268 0
209 206 291 0
209 -206 -291 0
-209 206 -291 0
-209 -206 291 0
211 210 292 0
211 -210 -292 0
-211 210 -292 0
-211 -210 292 0
213 212 239 0
213 -212 -239 0
-213 212 -239 0
-213 -212 239 0
214 212 298 0
214 -212 -298 0
-214 212 -298 0
-214 -212 298 0
216 215 243 0
216 -215 -243 0
-216 215 -243 0
-216 -215 243 0
217 215 274 0
217 -215 -274 0
-217 215 -274 0
-217 -215 274 0
218 215 275 0
218 -215 -275 0
-218 215 -275 0
-218 -215 275 0
219 215 279 0
219 -215 -279 0
-219 215 -279 0
-219 -215 279 0
220 215 292 0
220 -215 -292 0
-220 215 -292 0
-220 -215 292 0
221 215 299 0
221 -215 -299 0
-221 215 -299 0
-221 -215 299 0
223 222 268 0
223 -222 -268 0
-223 222 -268 0
-223 -222 268 0
224 222 285 0
224 -222 -285 0
-224 222 -285 0
-224 -222 285 0
226 225 250 0
226 -225 -250 0
-226 225 -250 0
-226 -225 250 0
227 225 268 0
227 -225 -268 0
-227 225 -268 0
-227 -225 268 0
228 225 281 0
228 -225 -281 0
-228 225 -281 0
-228 -225 281 0
229 225 285 0
229 -225 -285 0
-229 225 -285 0
-229 -225 285 0
230 225 298 0
230 -225 -298 0
-230 225 -298 0
-230 -225 298 0
232 231 264 0
232 -231 -264 0
-232 231 -264 0
-232 -231 264 0
235 234 250 0
235 -234 -250 0
-235 234 -250 0
-235 -234 250 0
236 234 258 0
236 -234 -258 0
-236 234 -258 0
-236 -234 258 0
237 234 264 0
237 -234 -264 0
-237 234 -264 0
-237 -234 264 0
238 234 274 0
238 -234 -274 0
-238 234 -274 0
-238 -234 274 0
240 239 243 0
240 -239 -243 0
-240 239 -243 0
-240 -239 243 0
241 239 268 0
241 -239 -268 0
-241 239 -268 0
-241 -239 268 0
242 239 296 0
242 -239 -296 0
-242 239 -296 0
-242 -239 296 0
244 243 285 0
244 -243 -285 0
-244 243 -285 0
-244 -243 285 0
245 243 287 0
245 -243 -287 0
-245 243 -287 0
-245 -243 287 0
247 246 258 0
247 -246 -258 0
-247 246 -258 0
-247 -246 258 0
248 246 274 0
248 -246 -274 0
-248 246 -274 0
-248 -246 274 0
249 246 281 0
249 -246 -281 0
-249 246 -281 0
-249 -246 281 0
251 250 279 0
251 -250 -279 0
-251 250 -279 0
-251 -250 279 0
252 250 283 0
252 -250 -283 0
-252 250 -283 0
-252 -250 283 0
254 253 258 0
254 -253 -258 0
-254 253 -258 0
-254 -253 258 0
255 253 279 0
255 -253 -279 0
-255 253 -279 0
-255 -253 279 0
256 253 281 0
256 -253 -281 0
-256 253 -281 0
-256 -253 281 0
257 253 298 0
257 -253 -298 0
-257 253 -298 0
-257 -253 298 0
259 258 292 0
259 -258 -292 0
-259 258 -292 0
-259 -258 292 0
260 258 298 0
260 -258 -298 0
-260 258 -298 0
-260 -258 298 0
262 261 275 0
262 -261 -275 0
-262 261 -275 0
-262 -261 275 0
263 261 287 0
263 -261 -287 0
-263 261 -287 0
-263 -261 287 0
266 265 268 0
266 -265 -268 0
-266 265 -268 0
-266 -265 268 0
267 265 296 0
267 -265 -296 0
-267 265 -296 0
-267 -265 296 0
269 268 273 0
269 -268 -273 0
-269 268 -273 0
-269 -268 273 0
270 268 281 0
270 -268 -281 0
-270 268 -281 0
-270 -268 281 0
271 268 287 0
271 -268 -287 0
-271 268 -287 0
-271 -268 287 0
272 268 291 0
272 -268 -291 0
-272 268 -291 0
-272 -268 291 0
277 276 285 0
277 -276 -285 0
-277 276 -285 0
-277 -276 285 0
278 276 297 0
278 -276 -297 0
-278 276 -297 0
-278 -276 297 0
280 279 298 0
280 -279 -298 0
-280 279 -298 0
-280 -279 298 0
282 281 292 0
282 -281 -292 0
-282 281 -292 0
-282 -281 292 0
284 283 299 0
284 -283 -299 0
-284 283 -299 0
-284 -283 299 0
286 285 294 0
286 -285 -294 0
-286 285 -294 0
-286 -285 294 0
288 287 289 0
288 -287 -289 0
-288 287 -289 0
-288 -287 289 0
290 289 292 0
290 -289 -292 0
-290 289 -292 0
-290 -289 292 0
293 292 299 0
293 -292 -299 0
-293 292 -299 0
-293 -292 299 0
295 294 298 0
295 -294 -298 0
-295 294 -298 0
-295 -294 298 0
